c graph converted from Delauney Triangulation format
c weights on edges removed (lost)
x low 0.00
p edge 159 431
n 0 1.00
n 124 1.00
n 158 1.00
n 2 1.00
n 1 1.00
n 157 1.00
n 3 1.00
n 155 1.00
n 5 1.00
n 4 1.00
n 153 1.00
n 152 1.00
n 151 1.00
n 6 1.00
n 7 1.00
n 11 1.00
n 150 1.00
n 147 1.00
n 146 1.00
n 8 1.00
n 145 1.00
n 9 1.00
n 10 1.00
n 143 1.00
n 142 1.00
n 12 1.00
n 15 1.00
n 13 1.00
n 141 1.00
n 14 1.00
n 16 1.00
n 21 1.00
n 23 1.00
n 17 1.00
n 31 1.00
n 30 1.00
n 18 1.00
n 20 1.00
n 19 1.00
n 24 1.00
n 27 1.00
n 28 1.00
n 22 1.00
n 25 1.00
n 26 1.00
n 57 1.00
n 29 1.00
n 55 1.00
n 32 1.00
n 54 1.00
n 139 1.00
n 137 1.00
n 34 1.00
n 33 1.00
n 39 1.00
n 48 1.00
n 51 1.00
n 36 1.00
n 35 1.00
n 38 1.00
n 37 1.00
n 136 1.00
n 134 1.00
n 135 1.00
n 40 1.00
n 42 1.00
n 44 1.00
n 131 1.00
n 41 1.00
n 133 1.00
n 122 1.00
n 43 1.00
n 121 1.00
n 120 1.00
n 45 1.00
n 119 1.00
n 46 1.00
n 118 1.00
n 47 1.00
n 90 1.00
n 74 1.00
n 49 1.00
n 50 1.00
n 73 1.00
n 52 1.00
n 65 1.00
n 64 1.00
n 63 1.00
n 62 1.00
n 53 1.00
n 56 1.00
n 58 1.00
n 60 1.00
n 59 1.00
n 61 1.00
n 72 1.00
n 66 1.00
n 67 1.00
n 68 1.00
n 69 1.00
n 70 1.00
n 71 1.00
n 77 1.00
n 75 1.00
n 89 1.00
n 76 1.00
n 83 1.00
n 88 1.00
n 82 1.00
n 81 1.00
n 80 1.00
n 79 1.00
n 78 1.00
n 86 1.00
n 84 1.00
n 85 1.00
n 96 1.00
n 97 1.00
n 95 1.00
n 87 1.00
n 94 1.00
n 93 1.00
n 91 1.00
n 117 1.00
n 92 1.00
n 106 1.00
n 107 1.00
n 108 1.00
n 105 1.00
n 102 1.00
n 101 1.00
n 100 1.00
n 99 1.00
n 98 1.00
n 103 1.00
n 104 1.00
n 112 1.00
n 111 1.00
n 110 1.00
n 109 1.00
n 116 1.00
n 115 1.00
n 114 1.00
n 123 1.00
n 113 1.00
n 129 1.00
n 128 1.00
n 125 1.00
n 126 1.00
n 127 1.00
n 130 1.00
n 154 1.00
n 132 1.00
n 149 1.00
n 138 1.00
n 140 1.00
n 148 1.00
n 144 1.00
n 156 1.00
e 0 124
e 0 158
e 0 2
e 1 2
e 1 158
e 1 157
e 1 3
e 1 155
e 2 158
e 2 3
e 2 5
e 3 155
e 3 4
e 3 5
e 4 155
e 4 153
e 4 5
e 4 152
e 5 152
e 5 151
e 5 6
e 5 7
e 5 11
e 6 150
e 6 151
e 6 147
e 6 7
e 7 147
e 7 146
e 7 8
e 7 11
e 8 146
e 8 145
e 8 9
e 8 11
e 9 145
e 9 11
e 9 10
e 9 143
e 10 11
e 10 143
e 10 142
e 10 12
e 11 12
e 11 15
e 12 142
e 12 13
e 12 15
e 13 142
e 13 141
e 13 14
e 13 15
e 14 15
e 14 141
e 14 16
e 15 16
e 15 21
e 15 23
e 16 141
e 16 17
e 16 21
e 17 141
e 17 31
e 17 21
e 17 30
e 17 18
e 17 20
e 18 30
e 18 20
e 18 19
e 19 20
e 19 24
e 19 30
e 19 27
e 19 28
e 20 21
e 20 22
e 20 24
e 21 22
e 21 23
e 22 23
e 22 24
e 23 24
e 23 25
e 24 26
e 24 25
e 24 27
e 25 26
e 25 27
e 26 27
e 27 28
e 27 57
e 28 30
e 28 29
e 28 55
e 28 57
e 29 30
e 29 31
e 29 32
e 29 54
e 29 55
e 30 31
e 31 139
e 31 137
e 31 34
e 31 32
e 31 141
e 32 34
e 32 33
e 32 39
e 32 48
e 32 51
e 32 54
e 33 36
e 33 35
e 33 34
e 33 38
e 33 39
e 34 36
e 34 137
e 35 36
e 35 37
e 35 38
e 36 136
e 36 37
e 36 137
e 37 38
e 37 134
e 37 135
e 37 136
e 38 39
e 38 40
e 38 134
e 39 40
e 39 42
e 39 44
e 39 48
e 40 131
e 40 41
e 40 133
e 40 134
e 40 42
e 41 131
e 41 122
e 41 43
e 41 42
e 42 43
e 42 44
e 43 122
e 43 121
e 43 120
e 43 45
e 43 44
e 44 45
e 44 48
e 45 120
e 45 119
e 45 46
e 45 48
e 46 119
e 46 118
e 46 47
e 46 48
e 47 118
e 47 90
e 47 74
e 47 49
e 47 48
e 48 49
e 48 50
e 48 51
e 49 74
e 49 73
e 49 50
e 50 73
e 50 51
e 51 73
e 51 52
e 51 54
e 52 73
e 52 65
e 52 64
e 52 63
e 52 62
e 52 53
e 52 54
e 53 62
e 53 54
e 53 56
e 53 58
e 54 56
e 54 55
e 55 56
e 55 57
e 56 58
e 56 57
e 57 58
e 58 60
e 58 59
e 58 62
e 59 60
e 60 62
e 60 61
e 61 62
e 61 63
e 62 63
e 63 64
e 64 65
e 65 72
e 65 66
e 65 73
e 66 72
e 66 67
e 67 72
e 67 68
e 68 72
e 68 69
e 69 72
e 69 70
e 70 72
e 70 71
e 71 72
e 71 77
e 72 77
e 72 75
e 72 73
e 73 75
e 73 74
e 74 89
e 74 76
e 74 90
e 74 75
e 75 76
e 75 77
e 76 83
e 76 88
e 76 82
e 76 81
e 76 80
e 76 79
e 76 78
e 76 89
e 76 77
e 77 78
e 78 79
e 79 80
e 80 81
e 81 82
e 82 83
e 83 86
e 83 84
e 83 88
e 84 86
e 84 85
e 85 86
e 85 96
e 86 97
e 86 95
e 86 96
e 86 87
e 86 88
e 87 94
e 87 95
e 87 93
e 87 88
e 88 93
e 88 89
e 89 90
e 89 93
e 90 93
e 90 91
e 90 118
e 91 117
e 91 92
e 91 93
e 91 118
e 92 106
e 92 107
e 92 108
e 92 117
e 92 94
e 92 93
e 93 94
e 94 105
e 94 106
e 94 102
e 94 101
e 94 100
e 94 99
e 94 95
e 95 99
e 95 98
e 95 97
e 96 97
e 97 98
e 98 99
e 99 100
e 100 101
e 101 102
e 102 105
e 102 103
e 103 105
e 103 104
e 104 105
e 105 106
e 106 107
e 106 124
e 107 124
e 107 112
e 107 111
e 107 110
e 107 109
e 107 108
e 108 109
e 108 117
e 109 110
e 109 116
e 109 117
e 110 111
e 110 115
e 110 116
e 111 112
e 111 114
e 111 115
e 112 124
e 112 123
e 112 114
e 112 113
e 113 114
e 113 123
e 113 129
e 113 121
e 113 122
e 114 115
e 114 121
e 114 120
e 115 116
e 115 120
e 115 119
e 116 117
e 116 119
e 116 118
e 117 118
e 118 119
e 119 120
e 120 121
e 121 122
e 122 129
e 122 131
e 123 124
e 123 128
e 123 129
e 124 158
e 124 125
e 124 126
e 124 128
e 125 158
e 125 126
e 125 157
e 126 128
e 126 127
e 126 157
e 126 130
e 126 154
e 127 128
e 127 129
e 127 130
e 128 129
e 129 130
e 129 131
e 130 131
e 130 132
e 130 154
e 130 149
e 131 132
e 131 133
e 132 133
e 132 134
e 132 135
e 132 149
e 132 136
e 132 138
e 133 134
e 134 135
e 135 136
e 136 138
e 136 139
e 136 137
e 137 139
e 138 140
e 138 149
e 138 139
e 139 140
e 139 141
e 140 149
e 140 148
e 140 144
e 140 141
e 141 144
e 141 142
e 142 144
e 142 143
e 143 144
e 143 145
e 144 148
e 144 145
e 145 148
e 145 146
e 146 148
e 146 147
e 147 149
e 147 150
e 147 148
e 148 149
e 149 150
e 149 154
e 150 154
e 150 153
e 150 151
e 151 152
e 151 153
e 152 153
e 153 155
e 153 154
e 154 155
e 154 156
e 154 157
e 155 157
e 155 156
e 156 157
e 157 158
